NAME: ACTUAL_TOURS/amz2283
TYPE: TOUR
COMMENT: RouteID_f1eef4e0-7b3e-4b88-b7a8-9149c79b640d
DIMENSION: 133
TOUR_SECTION
126
38
58
12
114
87
130
59
88
75
80
78
44
92
36
9
128
96
3
56
102
15
43
69
107
11
39
70
104
47
45
67
30
29
94
1
79
40
14
86
77
71
97
117
51
31
23
41
111
32
4
20
91
98
72
100
93
13
62
122
108
37
115
127
76
21
123
131
34
55
118
2
89
82
112
121
129
66
84
124
48
90
110
28
6
120
54
61
74
99
16
53
119
65
42
10
18
35
105
57
68
125
63
19
64
83
7
81
103
106
101
132
52
109
116
60
33
95
22
8
46
49
113
73
24
5
17
27
133
25
26
85
50
-1
EOF
